1618300
89,108,23,22,14,21,57,53,101,99,52,16,79,47,20,73,91,3,66,78,55,102,29,5,60,84,42,43,19,62,2,82,24,15,28,51,33,44,81,0,4,34,100,97,106,93,45,80,1,58,83,50,94,31,103,96,46,38,13,69,68,26,85,74,56,30,71,37,25,36,40,70,98,75,49,17,6,87,64,11,35,27,7,59,41,105,32,77,107,54,39,67,72,18,61,86,95,92,12,104,88,10,48,90,63,9,65,76,8,89
